51
43
35
22
30
93
41
71
16
55
86
20
25
70
50
54
26
67
87
10
15
40
77
11
65
95
96
76
46
66
63
99
3
97
27
59
62
89
1
18
34
12
5
52
13
82
19
61
6
79
53
47
64
92
91
84
56
88
23
7
78
28
45
83
81
73
75
80
9
0
37
24
42
17
98
57
74
21
68
39
48
8
94
14
36
29
49
90
32
85
72
60
33
58
69
4
31
38
44
2
